20
1 0 9
3 1 8
3 2 8
4 1 6
4 3 5
5 0 18
5 3 4
6 4 10
7 0 20
7 1 13
7 2 13
7 3 1
7 4 6
7 5 18
8 2 2
8 3 17
8 4 12
8 6 1
9 1 1
9 2 15
9 3 16
9 5 6
9 6 5
9 7 5
9 8 14
10 0 15
10 3 2
10 4 18
10 5 9
10 8 10
10 9 1
11 1 1
11 4 9
11 5 14
11 6 15
11 7 1
12 0 4
12 3 18
12 4 10
12 8 9
12 9 6
12 11 9
13 0 1
13 1 19
13 2 17
13 4 5
13 8 17
13 9 15
13 10 12
13 11 10
13 12 3
14 1 16
14 2 10
14 9 4
14 10 8
14 12 11
15 0 13
15 2 17
15 3 3
15 7 10
15 8 14
15 10 9
15 13 14
16 0 1
16 1 3
16 2 5
16 9 20
16 12 18
16 13 19
17 0 7
17 1 1
17 2 1
17 3 8
17 4 4
17 6 10
17 7 8
17 10 7
17 12 3
17 14 12
18 2 17
18 3 11
18 5 17
18 7 1
18 8 14
18 12 15
18 13 6
18 15 13
18 17 10
19 4 4
19 8 2
19 9 17
19 11 8
